SPARKNaCl/why3-z3/sparknacl-hashing-sha384.adb_40_17_range_check_1.smt2
;; produced by z3_gnatprove.drv ;;
(set-info :smt-lib-version 2.5)
(set-info :source |VC generated by SPARK 2014|)
(set-info :category industrial)
(set-info :status unknown)
;;; generated by SMT-LIB2 driver
;;; SMT-LIB2 driver: bit-vectors, common part
;;; SMT-LIB2: integer arithmetic
(declare-sort byte 0)

;; "to_rep"
(declare-fun to_rep (byte) (_ BitVec 8))

;; "of_rep"
(declare-fun of_rep ((_ BitVec 8)) byte)

;; "inversion_axiom"
(assert
  (forall ((x byte)) (! (= (of_rep (to_rep x)) x) :pattern ((to_rep x)) )))

;; "range_axiom"
(assert true)

;; "coerce_axiom"
(assert
  (forall ((x (_ BitVec 8)))
    (! (= (to_rep (of_rep x)) x) :pattern ((to_rep (of_rep x))) )))

(declare-sort map1 0)

(declare-datatypes ()
  ((map__ref (map__refqtmk (map__content map1)))))

;; "has_bounds"
(declare-fun has_bounds (map1
  Int
  Int) Bool)

;; "get"
(declare-fun get (map1
  Int) byte)

(declare-const iv_384 map1)

(declare-sort tinteger_32B 0)

;; "tinteger_32B'int"
(declare-fun tinteger_32Bqtint (tinteger_32B) Int)

;; "tinteger_32B'axiom"
(assert
  (forall ((i tinteger_32B))
    (and
      (<= (- 2147483648) (tinteger_32Bqtint i))
      (<= (tinteger_32Bqtint i) 2147483647))))

;; "in_range"
(define-fun in_range ((x Int)) Bool
  (and (<= (- 2147483648) x) (<= x 2147483647)))

;; "to_rep"
(define-fun to_rep1 ((x tinteger_32B)) Int
  (tinteger_32Bqtint x))

;; "of_rep"
(declare-fun of_rep1 (Int) tinteger_32B)

;; "inversion_axiom"
(assert
  (forall ((x tinteger_32B))
    (! (= (of_rep1 (to_rep1 x)) x) :pattern ((to_rep1 x)) )))

;; "range_axiom"
(assert
  (forall ((x tinteger_32B))
    (! (in_range (to_rep1 x)) :pattern ((to_rep1 x)) )))

;; "coerce_axiom"
(assert
  (forall ((x Int))
    (! (=> (in_range x) (= (to_rep1 (of_rep1 x)) x)) :pattern ((to_rep1
                                                                 (of_rep1 x))) )))

;; "in_range"
(define-fun in_range1 ((x Int)) Bool
  (and (<= 0 x) (<= x 2147483647)))

(declare-datatypes ()
  ((t (tqtmk (rec__first tinteger_32B)(rec__last tinteger_32B)))))

;; "dynamic_property"
(define-fun dynamic_property ((range_first Int) (range_last Int) (low Int) (high Int)) Bool
  (and
    (in_range low)
    (and
      (in_range high)
      (=> (<= low high) (and (in_range1 low) (in_range1 high))))))

(declare-datatypes ()
  ((us_t (us_tqtmk (elts map1)(rt t)))))

;; "first"
(define-fun first ((a us_t)) Int
  (to_rep1 (rec__first (rt a))))

;; "last"
(define-fun last ((a us_t)) Int
  (to_rep1 (rec__last (rt a))))

;; "well_formed"
(define-fun well_formed ((a us_t)) Bool
  (has_bounds
    (elts a)
    (to_rep1 (rec__first (rt a)))
    (to_rep1 (rec__last (rt a)))))

(declare-const m us_t)

;; "dynamic_invariant"
(define-fun dynamic_invariant ((temp___expr_278 us_t) (temp___is_init_274 Bool) (temp___skip_constant_275 Bool) (temp___do_toplevel_276 Bool) (temp___do_typ_inv_277 Bool)) Bool
  (and
    (=>
      (not (= temp___skip_constant_275 true))
      (dynamic_property
        0
        2147483647
        (first temp___expr_278)
        (last temp___expr_278)))
    (well_formed temp___expr_278)))

;; "ada___ada___sparknacl__hashing__sha384__iv_384__aggregate_def"
(declare-fun ada___ada___sparknacl__hashing__sha384__iv_384__aggregate_def ((_ BitVec 8)
  (_ BitVec 8)
  (_ BitVec 8)
  (_ BitVec 8)
  (_ BitVec 8)
  (_ BitVec 8)
  (_ BitVec 8)
  (_ BitVec 8)
  (_ BitVec 8)
  (_ BitVec 8)
  (_ BitVec 8)
  (_ BitVec 8)
  (_ BitVec 8)
  (_ BitVec 8)
  (_ BitVec 8)
  (_ BitVec 8)
  (_ BitVec 8)
  (_ BitVec 8)
  (_ BitVec 8)
  (_ BitVec 8)
  (_ BitVec 8)
  (_ BitVec 8)
  (_ BitVec 8)
  (_ BitVec 8)
  (_ BitVec 8)
  (_ BitVec 8)
  (_ BitVec 8)
  (_ BitVec 8)
  (_ BitVec 8)
  (_ BitVec 8)
  (_ BitVec 8)
  (_ BitVec 8)
  (_ BitVec 8)
  (_ BitVec 8)
  (_ BitVec 8)
  (_ BitVec 8)
  (_ BitVec 8)
  (_ BitVec 8)
  (_ BitVec 8)
  (_ BitVec 8)
  (_ BitVec 8)
  (_ BitVec 8)
  (_ BitVec 8)
  (_ BitVec 8)
  (_ BitVec 8)
  (_ BitVec 8)
  (_ BitVec 8)
  (_ BitVec 8)
  (_ BitVec 8)
  (_ BitVec 8)
  (_ BitVec 8)
  (_ BitVec 8)
  (_ BitVec 8)
  (_ BitVec 8)
  (_ BitVec 8)
  (_ BitVec 8)
  (_ BitVec 8)
  (_ BitVec 8)
  (_ BitVec 8)
  (_ BitVec 8)
  (_ BitVec 8)
  (_ BitVec 8)
  (_ BitVec 8)
  (_ BitVec 8)) map1)

;; "iv_384__def_axiom"
(assert
  (= iv_384 (let ((temp___237 (ada___ada___sparknacl__hashing__sha384__iv_384__aggregate_def
                                #xCB
                                #xBB
                                #x9D
                                #x5D
                                #xC1
                                #x05
                                #x9E
                                #xD8
                                #x62
                                #x9A
                                #x29
                                #x2A
                                #x36
                                #x7C
                                #xD5
                                #x07
                                #x91
                                #x59
                                #x01
                                #x5A
                                #x30
                                #x70
                                #xDD
                                #x17
                                #x15
                                #x2F
                                #xEC
                                #xD8
                                #xF7
                                #x0E
                                #x59
                                #x39
                                #x67
                                #x33
                                #x26
                                #x67
                                #xFF
                                #xC0
                                #x0B
                                #x31
                                #x8E
                                #xB4
                                #x4A
                                #x87
                                #x68
                                #x58
                                #x15
                                #x11
                                #xDB
                                #x0C
                                #x2E
                                #x0D
                                #x64
                                #xF9
                                #x8F
                                #xA7
                                #x47
                                #xB5
                                #x48
                                #x1D
                                #xBE
                                #xFA
                                #x4F
                                #xA4)))
              (let ((temp___238 temp___237)) temp___238))))

;; "def_axiom"
(assert
  (forall ((temp___170 (_ BitVec 8)) (temp___171 (_ BitVec 8)) (temp___172 (_ BitVec 8)) (temp___173 (_ BitVec 8)) (temp___174 (_ BitVec 8)) (temp___175 (_ BitVec 8)) (temp___176 (_ BitVec 8)) (temp___177 (_ BitVec 8)) (temp___178 (_ BitVec 8)) (temp___179 (_ BitVec 8)) (temp___180 (_ BitVec 8)) (temp___181 (_ BitVec 8)) (temp___182 (_ BitVec 8)) (temp___183 (_ BitVec 8)) (temp___184 (_ BitVec 8)) (temp___185 (_ BitVec 8)) (temp___186 (_ BitVec 8)) (temp___187 (_ BitVec 8)) (temp___188 (_ BitVec 8)) (temp___189 (_ BitVec 8)) (temp___190 (_ BitVec 8)) (temp___191 (_ BitVec 8)) (temp___192 (_ BitVec 8)) (temp___193 (_ BitVec 8)) (temp___194 (_ BitVec 8)) (temp___195 (_ BitVec 8)) (temp___196 (_ BitVec 8)) (temp___197 (_ BitVec 8)) (temp___198 (_ BitVec 8)) (temp___199 (_ BitVec 8)) (temp___200 (_ BitVec 8)) (temp___201 (_ BitVec 8)) (temp___202 (_ BitVec 8)) (temp___203 (_ BitVec 8)) (temp___204 (_ BitVec 8)) (temp___205 (_ BitVec 8)) (temp___206 (_ BitVec 8)) (temp___207 (_ BitVec 8)) (temp___208 (_ BitVec 8)) (temp___209 (_ BitVec 8)) (temp___210 (_ BitVec 8)) (temp___211 (_ BitVec 8)) (temp___212 (_ BitVec 8)) (temp___213 (_ BitVec 8)) (temp___214 (_ BitVec 8)) (temp___215 (_ BitVec 8)) (temp___216 (_ BitVec 8)) (temp___217 (_ BitVec 8)) (temp___218 (_ BitVec 8)) (temp___219 (_ BitVec 8)) (temp___220 (_ BitVec 8)) (temp___221 (_ BitVec 8)) (temp___222 (_ BitVec 8)) (temp___223 (_ BitVec 8)) (temp___224 (_ BitVec 8)) (temp___225 (_ BitVec 8)) (temp___226 (_ BitVec 8)) (temp___227 (_ BitVec 8)) (temp___228 (_ BitVec 8)) (temp___229 (_ BitVec 8)) (temp___230 (_ BitVec 8)) (temp___231 (_ BitVec 8)) (temp___232 (_ BitVec 8)) (temp___233 (_ BitVec 8)))
    (let ((temp___234 (ada___ada___sparknacl__hashing__sha384__iv_384__aggregate_def
                        temp___170
                        temp___171
                        temp___172
                        temp___173
                        temp___174
                        temp___175
                        temp___176
                        temp___177
                        temp___178
                        temp___179
                        temp___180
                        temp___181
                        temp___182
                        temp___183
                        temp___184
                        temp___185
                        temp___186
                        temp___187
                        temp___188
                        temp___189
                        temp___190
                        temp___191
                        temp___192
                        temp___193
                        temp___194
                        temp___195
                        temp___196
                        temp___197
                        temp___198
                        temp___199
                        temp___200
                        temp___201
                        temp___202
                        temp___203
                        temp___204
                        temp___205
                        temp___206
                        temp___207
                        temp___208
                        temp___209
                        temp___210
                        temp___211
                        temp___212
                        temp___213
                        temp___214
                        temp___215
                        temp___216
                        temp___217
                        temp___218
                        temp___219
                        temp___220
                        temp___221
                        temp___222
                        temp___223
                        temp___224
                        temp___225
                        temp___226
                        temp___227
                        temp___228
                        temp___229
                        temp___230
                        temp___231
                        temp___232
                        temp___233)))
      (and
        (and
          (and
            (= (to_rep (get temp___234 0)) temp___170)
            (= (to_rep (get temp___234 1)) temp___171))
          (and
            (and
              (and
                (and
                  (and
                    (and
                      (= (to_rep (get temp___234 2)) temp___172)
                      (= (to_rep (get temp___234 3)) temp___173))
                    (and
                      (= (to_rep (get temp___234 4)) temp___174)
                      (= (to_rep (get temp___234 5)) temp___175)))
                  (and
                    (and
                      (= (to_rep (get temp___234 6)) temp___176)
                      (= (to_rep (get temp___234 7)) temp___177))
                    (and
                      (= (to_rep (get temp___234 8)) temp___178)
                      (= (to_rep (get temp___234 9)) temp___179))))
                (and
                  (and
                    (and
                      (= (to_rep (get temp___234 10)) temp___180)
                      (= (to_rep (get temp___234 11)) temp___181))
                    (and
                      (= (to_rep (get temp___234 12)) temp___182)
                      (= (to_rep (get temp___234 13)) temp___183)))
                  (and
                    (and
                      (= (to_rep (get temp___234 14)) temp___184)
                      (= (to_rep (get temp___234 15)) temp___185))
                    (and
                      (= (to_rep (get temp___234 16)) temp___186)
                      (= (to_rep (get temp___234 17)) temp___187)))))
              (and
                (and
                  (and
                    (and
                      (= (to_rep (get temp___234 18)) temp___188)
                      (= (to_rep (get temp___234 19)) temp___189))
                    (and
                      (= (to_rep (get temp___234 20)) temp___190)
                      (= (to_rep (get temp___234 21)) temp___191)))
                  (and
                    (and
                      (= (to_rep (get temp___234 22)) temp___192)
                      (= (to_rep (get temp___234 23)) temp___193))
                    (and
                      (= (to_rep (get temp___234 24)) temp___194)
                      (= (to_rep (get temp___234 25)) temp___195))))
                (and
                  (and
                    (and
                      (= (to_rep (get temp___234 26)) temp___196)
                      (= (to_rep (get temp___234 27)) temp___197))
                    (and
                      (= (to_rep (get temp___234 28)) temp___198)
                      (= (to_rep (get temp___234 29)) temp___199)))
                  (and
                    (and
                      (= (to_rep (get temp___234 30)) temp___200)
                      (= (to_rep (get temp___234 31)) temp___201))
                    (= (to_rep (get temp___234 32)) temp___202)))))
            (and
              (and
                (and
                  (and
                    (and
                      (= (to_rep (get temp___234 33)) temp___203)
                      (= (to_rep (get temp___234 34)) temp___204))
                    (and
                      (= (to_rep (get temp___234 35)) temp___205)
                      (= (to_rep (get temp___234 36)) temp___206)))
                  (and
                    (and
                      (= (to_rep (get temp___234 37)) temp___207)
                      (= (to_rep (get temp___234 38)) temp___208))
                    (and
                      (= (to_rep (get temp___234 39)) temp___209)
                      (= (to_rep (get temp___234 40)) temp___210))))
                (and
                  (and
                    (and
                      (= (to_rep (get temp___234 41)) temp___211)
                      (= (to_rep (get temp___234 42)) temp___212))
                    (and
                      (= (to_rep (get temp___234 43)) temp___213)
                      (= (to_rep (get temp___234 44)) temp___214)))
                  (and
                    (and
                      (= (to_rep (get temp___234 45)) temp___215)
                      (= (to_rep (get temp___234 46)) temp___216))
                    (and
                      (= (to_rep (get temp___234 47)) temp___217)
                      (= (to_rep (get temp___234 48)) temp___218)))))
              (and
                (and
                  (and
                    (and
                      (= (to_rep (get temp___234 49)) temp___219)
                      (= (to_rep (get temp___234 50)) temp___220))
                    (and
                      (= (to_rep (get temp___234 51)) temp___221)
                      (= (to_rep (get temp___234 52)) temp___222)))
                  (and
                    (and
                      (= (to_rep (get temp___234 53)) temp___223)
                      (= (to_rep (get temp___234 54)) temp___224))
                    (and
                      (= (to_rep (get temp___234 55)) temp___225)
                      (= (to_rep (get temp___234 56)) temp___226))))
                (and
                  (and
                    (and
                      (= (to_rep (get temp___234 57)) temp___227)
                      (= (to_rep (get temp___234 58)) temp___228))
                    (and
                      (= (to_rep (get temp___234 59)) temp___229)
                      (= (to_rep (get temp___234 60)) temp___230)))
                  (and
                    (and
                      (= (to_rep (get temp___234 61)) temp___231)
                      (= (to_rep (get temp___234 62)) temp___232))
                    (= (to_rep (get temp___234 63)) temp___233)))))))
        (=>
          (and
            (and (and (<= 0 0) (<= 0 63)) (and (<= 0 1) (<= 1 63)))
            (and
              (and
                (and
                  (and
                    (and
                      (and (and (<= 0 2) (<= 2 63)) (and (<= 0 3) (<= 3 63)))
                      (and (and (<= 0 4) (<= 4 63)) (and (<= 0 5) (<= 5 63))))
                    (and
                      (and (and (<= 0 6) (<= 6 63)) (and (<= 0 7) (<= 7 63)))
                      (and (and (<= 0 8) (<= 8 63)) (and (<= 0 9) (<= 9 63)))))
                  (and
                    (and
                      (and
                        (and (<= 0 10) (<= 10 63))
                        (and (<= 0 11) (<= 11 63)))
                      (and
                        (and (<= 0 12) (<= 12 63))
                        (and (<= 0 13) (<= 13 63))))
                    (and
                      (and
                        (and (<= 0 14) (<= 14 63))
                        (and (<= 0 15) (<= 15 63)))
                      (and
                        (and (<= 0 16) (<= 16 63))
                        (and (<= 0 17) (<= 17 63))))))
                (and
                  (and
                    (and
                      (and
                        (and (<= 0 18) (<= 18 63))
                        (and (<= 0 19) (<= 19 63)))
                      (and
                        (and (<= 0 20) (<= 20 63))
                        (and (<= 0 21) (<= 21 63))))
                    (and
                      (and
                        (and (<= 0 22) (<= 22 63))
                        (and (<= 0 23) (<= 23 63)))
                      (and
                        (and (<= 0 24) (<= 24 63))
                        (and (<= 0 25) (<= 25 63)))))
                  (and
                    (and
                      (and
                        (and (<= 0 26) (<= 26 63))
                        (and (<= 0 27) (<= 27 63)))
                      (and
                        (and (<= 0 28) (<= 28 63))
                        (and (<= 0 29) (<= 29 63))))
                    (and
                      (and
                        (and (<= 0 30) (<= 30 63))
                        (and (<= 0 31) (<= 31 63)))
                      (and (<= 0 32) (<= 32 63))))))
              (and
                (and
                  (and
                    (and
                      (and
                        (and (<= 0 33) (<= 33 63))
                        (and (<= 0 34) (<= 34 63)))
                      (and
                        (and (<= 0 35) (<= 35 63))
                        (and (<= 0 36) (<= 36 63))))
                    (and
                      (and
                        (and (<= 0 37) (<= 37 63))
                        (and (<= 0 38) (<= 38 63)))
                      (and
                        (and (<= 0 39) (<= 39 63))
                        (and (<= 0 40) (<= 40 63)))))
                  (and
                    (and
                      (and
                        (and (<= 0 41) (<= 41 63))
                        (and (<= 0 42) (<= 42 63)))
                      (and
                        (and (<= 0 43) (<= 43 63))
                        (and (<= 0 44) (<= 44 63))))
                    (and
                      (and
                        (and (<= 0 45) (<= 45 63))
                        (and (<= 0 46) (<= 46 63)))
                      (and
                        (and (<= 0 47) (<= 47 63))
                        (and (<= 0 48) (<= 48 63))))))
                (and
                  (and
                    (and
                      (and
                        (and (<= 0 49) (<= 49 63))
                        (and (<= 0 50) (<= 50 63)))
                      (and
                        (and (<= 0 51) (<= 51 63))
                        (and (<= 0 52) (<= 52 63))))
                    (and
                      (and
                        (and (<= 0 53) (<= 53 63))
                        (and (<= 0 54) (<= 54 63)))
                      (and
                        (and (<= 0 55) (<= 55 63))
                        (and (<= 0 56) (<= 56 63)))))
                  (and
                    (and
                      (and
                        (and (<= 0 57) (<= 57 63))
                        (and (<= 0 58) (<= 58 63)))
                      (and
                        (and (<= 0 59) (<= 59 63))
                        (and (<= 0 60) (<= 60 63))))
                    (and
                      (and
                        (and (<= 0 61) (<= 61 63))
                        (and (<= 0 62) (<= 62 63)))
                      (and (<= 0 63) (<= 63 63))))))))
          (has_bounds temp___234 0 63))))))

(declare-const output map1)

(declare-const h map1)

;; "h'unused"
(define-fun hqtunused () map__ref
  (map__refqtmk h))

;; "Assume"
(assert (has_bounds iv_384 0 63))

(declare-const temp___519 map1)

;; "H"
(assert (= (to_rep (get temp___519 0)) #xCB))

;; "H"
(assert (= (to_rep (get temp___519 1)) #xBB))

;; "H"
(assert (= (to_rep (get temp___519 2)) #x9D))

;; "H"
(assert (= (to_rep (get temp___519 3)) #x5D))

;; "H"
(assert (= (to_rep (get temp___519 4)) #xC1))

;; "H"
(assert (= (to_rep (get temp___519 5)) #x05))

;; "H"
(assert (= (to_rep (get temp___519 6)) #x9E))

;; "H"
(assert (= (to_rep (get temp___519 7)) #xD8))

;; "H"
(assert (= (to_rep (get temp___519 8)) #x62))

;; "H"
(assert (= (to_rep (get temp___519 9)) #x9A))

;; "H"
(assert (= (to_rep (get temp___519 10)) #x29))

;; "H"
(assert (= (to_rep (get temp___519 11)) #x2A))

;; "H"
(assert (= (to_rep (get temp___519 12)) #x36))

;; "H"
(assert (= (to_rep (get temp___519 13)) #x7C))

;; "H"
(assert (= (to_rep (get temp___519 14)) #xD5))

;; "H"
(assert (= (to_rep (get temp___519 15)) #x07))

;; "H"
(assert (= (to_rep (get temp___519 16)) #x91))

;; "H"
(assert (= (to_rep (get temp___519 17)) #x59))

;; "H"
(assert (= (to_rep (get temp___519 18)) #x01))

;; "H"
(assert (= (to_rep (get temp___519 19)) #x5A))

;; "H"
(assert (= (to_rep (get temp___519 20)) #x30))

;; "H"
(assert (= (to_rep (get temp___519 21)) #x70))

;; "H"
(assert (= (to_rep (get temp___519 22)) #xDD))

;; "H"
(assert (= (to_rep (get temp___519 23)) #x17))

;; "H"
(assert (= (to_rep (get temp___519 24)) #x15))

;; "H"
(assert (= (to_rep (get temp___519 25)) #x2F))

;; "H"
(assert (= (to_rep (get temp___519 26)) #xEC))

;; "H"
(assert (= (to_rep (get temp___519 27)) #xD8))

;; "H"
(assert (= (to_rep (get temp___519 28)) #xF7))

;; "H"
(assert (= (to_rep (get temp___519 29)) #x0E))

;; "H"
(assert (= (to_rep (get temp___519 30)) #x59))

;; "H"
(assert (= (to_rep (get temp___519 31)) #x39))

;; "H"
(assert (= (to_rep (get temp___519 32)) #x67))

;; "H"
(assert (= (to_rep (get temp___519 33)) #x33))

;; "H"
(assert (= (to_rep (get temp___519 34)) #x26))

;; "H"
(assert (= (to_rep (get temp___519 35)) #x67))

;; "H"
(assert (= (to_rep (get temp___519 36)) #xFF))

;; "H"
(assert (= (to_rep (get temp___519 37)) #xC0))

;; "H"
(assert (= (to_rep (get temp___519 38)) #x0B))

;; "H"
(assert (= (to_rep (get temp___519 39)) #x31))

;; "H"
(assert (= (to_rep (get temp___519 40)) #x8E))

;; "H"
(assert (= (to_rep (get temp___519 41)) #xB4))

;; "H"
(assert (= (to_rep (get temp___519 42)) #x4A))

;; "H"
(assert (= (to_rep (get temp___519 43)) #x87))

;; "H"
(assert (= (to_rep (get temp___519 44)) #x68))

;; "H"
(assert (= (to_rep (get temp___519 45)) #x58))

;; "H"
(assert (= (to_rep (get temp___519 46)) #x15))

;; "H"
(assert (= (to_rep (get temp___519 47)) #x11))

;; "H"
(assert (= (to_rep (get temp___519 48)) #xDB))

;; "H"
(assert (= (to_rep (get temp___519 49)) #x0C))

;; "H"
(assert (= (to_rep (get temp___519 50)) #x2E))

;; "H"
(assert (= (to_rep (get temp___519 51)) #x0D))

;; "H"
(assert (= (to_rep (get temp___519 52)) #x64))

;; "H"
(assert (= (to_rep (get temp___519 53)) #xF9))

;; "H"
(assert (= (to_rep (get temp___519 54)) #x8F))

;; "H"
(assert (= (to_rep (get temp___519 55)) #xA7))

;; "H"
(assert (= (to_rep (get temp___519 56)) #x47))

;; "H"
(assert (= (to_rep (get temp___519 57)) #xB5))

;; "H"
(assert (= (to_rep (get temp___519 58)) #x48))

;; "H"
(assert (= (to_rep (get temp___519 59)) #x1D))

;; "H"
(assert (= (to_rep (get temp___519 60)) #xBE))

;; "H"
(assert (= (to_rep (get temp___519 61)) #xFA))

;; "H"
(assert (= (to_rep (get temp___519 62)) #x4F))

;; "H"
(assert (= (to_rep (get temp___519 63)) #xA4))

;; "H"
(assert (has_bounds temp___519 0 63))

;; "H"
(assert
  (= temp___519 (ada___ada___sparknacl__hashing__sha384__iv_384__aggregate_def
                  #xCB
                  #xBB
                  #x9D
                  #x5D
                  #xC1
                  #x05
                  #x9E
                  #xD8
                  #x62
                  #x9A
                  #x29
                  #x2A
                  #x36
                  #x7C
                  #xD5
                  #x07
                  #x91
                  #x59
                  #x01
                  #x5A
                  #x30
                  #x70
                  #xDD
                  #x17
                  #x15
                  #x2F
                  #xEC
                  #xD8
                  #xF7
                  #x0E
                  #x59
                  #x39
                  #x67
                  #x33
                  #x26
                  #x67
                  #xFF
                  #xC0
                  #x0B
                  #x31
                  #x8E
                  #xB4
                  #x4A
                  #x87
                  #x68
                  #x58
                  #x15
                  #x11
                  #xDB
                  #x0C
                  #x2E
                  #x0D
                  #x64
                  #xF9
                  #x8F
                  #xA7
                  #x47
                  #xB5
                  #x48
                  #x1D
                  #xBE
                  #xFA
                  #x4F
                  #xA4)))

;; "ada___ada___sparknacl__hashing__sha384__iv_384__aggregate_def'result'unused"
(define-fun ada___ada___sparknacl__hashing__sha384__iv_384__aggregate_defqtresultqtunused 
  () map1
  temp___519)

;; "Assume"
(assert (= temp___519 iv_384))

;; "Assume"
(assert (has_bounds output 0 47))

;; "Assume"
(assert (dynamic_invariant m true false true true))

;; "Assume"
(assert true)

;; "Assume"
(assert (has_bounds h 0 63))

;; "map__content'result'unused"
(define-fun map__contentqtresultqtunused () map1
  h)

(declare-const h1 map1)

;; "h'unused"
(define-fun hqtunused1 () map__ref
  (map__refqtmk h1))

;; "H"
(assert (has_bounds h1 0 63))

;; "H"
(assert true)

;; "H"
(assert true)

;; "H"
(assert (<= 0 47))

;; Goal "def'vc"
;; File "sparknacl-hashing-sha384.adb", line 26, characters 0-0
(assert
  (not (<= 0 0)))

(check-sat)
